30 50 15
0 6
6 12
18 24
0 1
1 6
0 7
6 7
12 13
18 19
18 25
1 7
7 13
13 19
19 25
2 7
7 8
7 14
14 19
19 20
8 14
14 20
20 26
2 3
2 9
8 9
8 15
15 20
20 21
26 27
3 9
9 15
15 21
21 27
3 4
9 10
10 15
15 16
16 21
21 29
10 16
22 28
4 11
5 10
10 11
16 17
16 23
28 29
5 11
11 17
17 23
0 2 4 5 7 11 12 15 16 17 18 19 22 23 29